7979591363522239703505,15,1,2,02,13,1,2,012,9,1,2,015,7,1,2,04,1,1,2,012,14,1,2,014,5,1,2,015,11,1,2,08,15,1,2,07,3,1,2,011,7,1,2,07,2,1,2,08,2,1,2,05,14,1,2,01,9,1,2,03,7,1,2,011,8,1,2,010,3,1,2,04,8,1,2,014,6,1,2,09,12,1,2,04,11,1,2,04,10,1,2,07,10,1,2,015,11,1,2,08,9,1,2,07,2,1,2,01,4,1,2,05,12,1,2,013,7,1,2,08,6,1,2,03,7,1,2,04,1,1,2,014,4,1,2,09,10,1,2,013,5,1,2,011,10,1,2,015,7,1,2,013,10,1,2,014,2,1,2,014,7,1,2,011,2,1,2,04,7,1,2,014,6,1,2,06,4,1,2,05,1,1,2,010,7,1,2,015,15,1,2,09,15,1,2,09,8,1,2,0